35968 38895 
35398 39368 
35863 39103 
34727 39845 
34755 39844 
33213 40736 
33641 40612 
34342 40276 
33824 40575 
32739 41257 
34006 40535 
34585 40097 
34649 40059 
34395 40155 
34690 39889 
35064 39699 
34201 40326 
35256 39472 
34686 39945 
35424 39288 
34394 40160 
34850 39746 
34948 39702 
35493 39270 
35175 39621 
35299 39441 
35818 39145 
34650 40029 
36125 38860 
35705 39194 
35917 39014 
35943 38900 
35512 39246 
36699 37771 
36654 37846 
36460 38374 
36639 38121 
36366 38423 
36817 37568 
37075 37293 
37023 37419 
36977 37425 
36777 37727 
37113 36903 
36497 38180 
37270 36569 
36314 38624 
37177 36637 
37347 35682 
37223 36631 
37311 35953 
